letting initialStacks = [17, 9, 10, 21, 39, 40, 23, 5, 44, 36, 25, 31, 32, 16, 42, 30, 11, 20, 41, 12, 50, 3, 45, 24, 27, 7, 49, 33, 47, 13, 43, 18, 14, 15, 37, 22, 26, 28, 19, 35, 8, 48, 51, 38, 4, 1, 34, 2, 29, 46, 6]
